gen	cost
1	1456
2	1445
3	1439
4	1438
5	1438
6	1435
7	1432
8	1424
9	1419
10	1419
11	1411
12	1411
13	1408
14	1408
15	1408
16	1407
17	1404
18	1404
19	1400
20	1400
21	1400
22	1399
23	1397
24	1395
25	1395
26	1390
27	1390
28	1389
29	1389
30	1380
31	1380
32	1380
33	1377
34	1377
35	1377
36	1377
37	1377
38	1377
39	1377
40	1377
41	1377
42	1377
43	1377
44	1377
45	1377
46	1377
47	1377
48	1377
49	1377
50	1377

